5 5
4 39 3 61 1 23 0 72 2 92
2 93 4 79 1 39 0 72 3 92
3 97 1 11 2 42 0 25 4 34
4 22 1 2 3 51 0 16 2 11
4 78 0 96 3 86 1 69 2 87
-1
0 2 3 4 5
0 1 3 4 5
0 1 3 5
0 1 5
0 2 5
-2
141 186 266 447
123 219 369 552
150 209 300
29 125
277 617

463 6
21 13 3 8 18
11 2 16 7 23
5 12 4 19 24
10 1 22 17 9
20 0 15 6 14
